k = 32;
b = 16;
AtomicConstraints =  [|
2, 1|
	4, 1|
	4, 3|
	5, 6|
	5, 8|
	5, 14|
	5, 16|
	7, 6|
	7, 8|
	19, 9|
	19, 10|
	19, 11|
	19, 12|
	20, 17|
	20, 13|
	20, 14|
	20, 15|
	20, 16|
	9, 10|
	9, 12|
	18, 9|
	18, 10|
	18, 11|
	18, 12|
	11, 10|
	11, 12|
	17, 13|
	17, 14|
	17, 16|
	13, 14|
	15, 6|
	15, 13|
	15, 14|
	15, 16|
	16, 14|
	21, 26|
	21, 28|
	21, 30|
	23, 26|
	23, 28|
	23, 30|
	31, 26|
	31, 28|
	31, 30|
	29, 26|];
DisjunctiveConstraints =  [|5, 7, 5, 15|
	6, 8, 6, 16|
	7, 19, 7, 5|
	8, 9, 8, 6|
	19, 18, 19, 7|
	20, 17, 20, 1|
	9, 11, 9, 8|
	15, 5, 15, 17|
	16, 6, 16, 13|
	23, 31, 23, 21|
	27, 29, 27, 25|
	28, 30, 28, 26|
	24, 32, 24, 22|];
SoftAtomicConstraints =  [|
3, 1|
4, 2|
7, 5|
8, 6|
19, 7|
9, 8|
11, 9|
12, 10|
16, 13|
10, 14|
5, 15|
6, 16|
15, 17|
18, 19|
23, 21|
24, 22|
31, 23|
32, 24|
27, 25|
28, 26|
29, 27|
30, 28|
21, 29|];
DirectSuccessors =  [20,
19,
17,
18];
